db/data/2822301422360814907924868062635512702.z3.out
sat
-------------------
39.896987919
